solution status: optimal solution found
objective value:                     192358.334469402
d11(0,0)                                            1 	(obj:0)
d11(1,1)                                            1 	(obj:0)
d11(1,2)                                            1 	(obj:0)
d11(2,3)                                            1 	(obj:0)
d11(2,4)                                            1 	(obj:0)
d11(2,5)                                            1 	(obj:0)
d11(3,7)                                            1 	(obj:0)
d11(3,9)                                            1 	(obj:0)
d11(3,11)                                           1 	(obj:0)
d11(3,13)                                           1 	(obj:0)
d11(4,15)                                           1 	(obj:0)
d11(4,16)                                           1 	(obj:0)
d11(4,17)                                           1 	(obj:0)
d11(4,18)                           0.999999999999999 	(obj:0)
d11(4,19)                                           1 	(obj:0)
d11(4,20)                                           1 	(obj:0)
d11(4,21)                                           1 	(obj:0)
d11(4,22)                                           1 	(obj:0)
d11(4,23)                                           1 	(obj:0)
d11(4,24)                                           1 	(obj:0)
d11(4,25)                                           1 	(obj:0)
d11(4,26)                                           1 	(obj:0)
d11(4,27)                                           1 	(obj:0)
d11(4,29)                                           1 	(obj:0)
d11(4,30)                                           1 	(obj:0)
d21(3,7)                                            1 	(obj:0)
d21(4,15)                                           1 	(obj:0)
d21(4,16)                                           1 	(obj:0)
d21(4,17)                                           1 	(obj:0)
d21(4,19)                                           1 	(obj:0)
d21(4,20)                                           1 	(obj:0)
d21(4,21)                                           1 	(obj:0)
d21(4,23)                                           1 	(obj:0)
d21(4,25)                                           1 	(obj:0)
STE(1,1)                             10163.2498988878 	(obj:0)
STE(0,0)                                        15750 	(obj:0)
STE(1,2)                             11821.4997977766 	(obj:0)
STE(2,3)                             7244.99999999901 	(obj:0)
STE(2,4)                             8903.24989888783 	(obj:0)
STE(2,5)                              8903.2498988916 	(obj:0)
STE(2,6)                             10561.4997977766 	(obj:0)
STE(3,7)                             4326.75010111017 	(obj:0)
STE(3,8)                             5984.99999999901 	(obj:0)
STE(3,9)                             5984.99999999903 	(obj:0)
STE(3,10)                            7643.24989888783 	(obj:0)
STE(3,11)                            5985.00000000278 	(obj:0)
STE(3,12)                             7643.2498988916 	(obj:0)
STE(3,13)                            7643.24989888782 	(obj:0)
STE(3,14)                            9301.49979777664 	(obj:0)
STE(4,15)                            1408.50020222132 	(obj:0)
STE(4,16)                            3066.75010111017 	(obj:0)
STE(4,17)                            3066.75010111016 	(obj:0)
STE(4,18)                                        4725 	(obj:0)
STE(4,19)                            3066.75010111019 	(obj:0)
STE(4,20)                              4724.999999999 	(obj:0)
STE(4,21)                            4724.99999999898 	(obj:0)
STE(4,22)                            6383.24989888783 	(obj:0)
STE(4,23)                            3066.75010111394 	(obj:0)
STE(4,24)                                        4725 	(obj:0)
STE(4,25)                            4725.00000000276 	(obj:0)
STE(4,26)                            6383.24989889157 	(obj:0)
STE(4,27)                            4724.99999999898 	(obj:0)
STE(4,28)                            6383.24989888782 	(obj:0)
STE(4,29)                             6383.2498988878 	(obj:0)
STE(4,30)                            8041.49979777661 	(obj:0)
y1(3,11)                             1492.42490899994 	(obj:0)
y1(3,13)                             1492.42490899994 	(obj:0)
y1(4,15)                             1492.42490899996 	(obj:0)
y1(4,17)                             1492.42490899996 	(obj:0)
y1(4,19)                             1492.42490899996 	(obj:0)
y1(4,21)                             1492.42490899996 	(obj:0)
y1(4,23)                             1492.42490899996 	(obj:0)
y1(4,24)                         2.50525772571564e-009 	(obj:0)
y1(4,25)                             1492.42490899996 	(obj:0)
y1(4,27)                             1492.42490899996 	(obj:0)
y1(4,29)                             1492.42490899996 	(obj:0)
AVE(1)                               3265.91696791192 	(obj:0)
WB(2)                                3332.74178563731 	(obj:0)
AVE(2)                               3332.74178563731 	(obj:0)
WB(3)                                3444.11697932125 	(obj:0)
AVE(3)                               3444.11697932125 	(obj:0)
AVE(4)                               3399.56511093778 	(obj:0)
WG(1)                                3265.91696791192 	(obj:10)
WG(4)                                3399.56511093778 	(obj:10)
BG(1)                                 3381.0389820891 	(obj:10)
BG(2)                                4196.29249897959 	(obj:10)
BG(3)                                4196.29249897959 	(obj:10)
BG(4)                                796.727388041812 	(obj:10)
y1(1,1)                              3894.07509100096 	(obj:0)
y1(1,2)                              2401.65018200102 	(obj:0)
y1(2,3)                              1492.42490899994 	(obj:0)
y1(2,5)                              1492.42490899654 	(obj:0)
y1(3,7)                              1492.42490899995 	(obj:0)
y1(3,9)                              1492.42490899991 	(obj:0)
